(set-option :produce-models true); benchmark generated from python API
(set-info :status unknown)
(declare-fun l_0_0_3 () Real)
(declare-fun l_0_0_2 () Real)
(declare-fun _a_3_ () Real)
(declare-fun _a_1_ () Real)
(declare-fun _a_2_ () Real)
(declare-fun l_0_0_4 () Real)
(declare-fun _a_0_ () Real)
(declare-fun l_0_0_1 () Real)
(declare-fun l_0_1_5 () Real)
(declare-fun l_0_1_4 () Real)
(declare-fun l_0_1_3 () Real)
(declare-fun l_0_1_2 () Real)
(declare-fun l_0_1_1 () Real)
(declare-fun l_0_2_6 () Real)
(declare-fun l_0_2_5 () Real)
(declare-fun l_0_2_4 () Real)
(declare-fun l_0_2_3 () Real)
(declare-fun l_0_2_2 () Real)
(declare-fun l_0_2_1 () Real)
(declare-fun l_0_3_7 () Real)
(declare-fun l_0_3_6 () Real)
(declare-fun l_0_3_5 () Real)
(declare-fun l_0_3_4 () Real)
(declare-fun l_0_3_3 () Real)
(declare-fun l_0_3_2 () Real)
(declare-fun l_0_3_1 () Real)
(declare-fun l_0_4_4 () Real)
(declare-fun l_0_4_3 () Real)
(declare-fun l_0_4_1 () Real)
(declare-fun l_0_4_2 () Real)
(declare-fun l_0_5_5 () Real)
(declare-fun l_0_5_4 () Real)
(declare-fun l_0_5_3 () Real)
(declare-fun l_0_5_1 () Real)
(declare-fun l_0_5_2 () Real)
(declare-fun l_0_6_6 () Real)
(declare-fun l_0_6_5 () Real)
(declare-fun l_0_6_4 () Real)
(declare-fun l_0_6_3 () Real)
(declare-fun l_0_6_2 () Real)
(declare-fun l_0_6_1 () Real)
(declare-fun l_0_7_7 () Real)
(declare-fun l_0_7_6 () Real)
(declare-fun l_0_7_5 () Real)
(declare-fun l_0_7_4 () Real)
(declare-fun l_0_7_3 () Real)
(declare-fun l_0_7_2 () Real)
(declare-fun l_0_7_1 () Real)
(assert
 (let ((?x60 (- (- (* (* (- 200.0) _a_1_) _a_2_) (* (* 200.0 _a_1_) _a_3_)) l_0_0_2)))
 (= (+ (+ ?x60 l_0_0_3) 1.0) 0.0)))
(assert
 (let ((?x105 (* 200.0 l_0_0_3)))
 (let ((?x106 (- (- (* (* (- 200.0) _a_0_) _a_2_) (* (* 200.0 _a_0_) _a_3_)) ?x105)))
 (= (- ?x106 l_0_0_4) 0.0))))
(assert
 (= (- l_0_0_1) 0.0))
(assert
 (>= l_0_0_1 0.0))
(assert
 (>= l_0_0_2 0.0))
(assert
 (>= l_0_0_3 0.0))
(assert
 (>= l_0_0_4 0.0))
(assert
 (let ((?x137 (* 200.0 l_0_1_3)))
 (let ((?x138 (- (+ (* (* 200.0 _a_0_) _a_2_) (* (* 200.0 _a_0_) _a_3_)) ?x137)))
 (= (- (- ?x138 l_0_1_4) l_0_1_5) 0.0))))
(assert
 (let ((?x157 (- (+ (* (* 200.0 _a_1_) _a_2_) (* (* 200.0 _a_1_) _a_3_)) l_0_1_2)))
 (= (- (+ ?x157 l_0_1_3) 1.0) 0.0)))
(assert
 (= (- l_0_1_1) 0.0))
(assert
 (>= l_0_1_1 0.0))
(assert
 (>= l_0_1_2 0.0))
(assert
 (>= l_0_1_3 0.0))
(assert
 (>= l_0_1_4 0.0))
(assert
 (>= l_0_1_5 0.0))
(assert
 (let ((?x184 (* 200.0 l_0_2_3)))
 (let ((?x186 (- (- (+ (* _a_0_ _a_2_) (* (* 1.0 _a_0_) _a_3_)) ?x184) l_0_2_4)))
 (= (- (- ?x186 l_0_2_5) l_0_2_6) 0.0))))
(assert
 (let ((?x212 (+ (- (+ (* _a_1_ _a_2_) (* (* 1.0 _a_1_) _a_3_)) l_0_2_2) l_0_2_3)))
 (= ?x212 0.0)))
(assert
 (= (- l_0_2_1) 0.0))
(assert
 (>= l_0_2_1 0.0))
(assert
 (>= l_0_2_2 0.0))
(assert
 (>= l_0_2_3 0.0))
(assert
 (>= l_0_2_4 0.0))
(assert
 (>= l_0_2_5 0.0))
(assert
 (>= l_0_2_6 0.0))
(assert
 (let ((?x236 (* 200.0 l_0_3_3)))
 (let ((?x238 (- (- (- (* (- _a_0_) _a_2_) (* (* 1.0 _a_0_) _a_3_)) ?x236) l_0_3_4)))
 (= (+ (- (- (- ?x238 l_0_3_5) l_0_3_6) l_0_3_7) 1.0) 0.0))))
(assert
 (let ((?x267 (- (- (* (- _a_1_) _a_2_) (* (* 1.0 _a_1_) _a_3_)) l_0_3_2)))
 (= (+ ?x267 l_0_3_3) 0.0)))
(assert
 (= (- l_0_3_1) 0.0))
(assert
 (>= l_0_3_1 0.0))
(assert
 (>= l_0_3_2 0.0))
(assert
 (>= l_0_3_3 0.0))
(assert
 (>= l_0_3_4 0.0))
(assert
 (>= l_0_3_5 0.0))
(assert
 (>= l_0_3_6 0.0))
(assert
 (>= l_0_3_7 0.0))
(assert
 (= (- (* 200.0 l_0_4_3) l_0_4_4) 0.0))
(assert
 (= (- l_0_4_1) 0.0))
(assert
 (= (- (- l_0_4_2) l_0_4_3) 0.0))
(assert
 (>= l_0_4_1 0.0))
(assert
 (>= l_0_4_2 0.0))
(assert
 (>= l_0_4_3 0.0))
(assert
 (>= l_0_4_4 0.0))
(assert
 (= (- (- (* 200.0 l_0_5_3) l_0_5_4) l_0_5_5) 0.0))
(assert
 (= (- l_0_5_1) 0.0))
(assert
 (= (- (- l_0_5_2) l_0_5_3) 0.0))
(assert
 (>= l_0_5_1 0.0))
(assert
 (>= l_0_5_2 0.0))
(assert
 (>= l_0_5_3 0.0))
(assert
 (>= l_0_5_4 0.0))
(assert
 (>= l_0_5_5 0.0))
(assert
 (let ((?x341 (- (- (+ (* _a_0_ _a_2_) (* 200.0 l_0_6_3)) l_0_6_4) l_0_6_5)))
 (= (- ?x341 l_0_6_6) 0.0)))
(assert
 (= (- (- (* _a_1_ _a_2_) l_0_6_2) l_0_6_3) 0.0))
(assert
 (= (- l_0_6_1) 0.0))
(assert
 (>= l_0_6_1 0.0))
(assert
 (>= l_0_6_2 0.0))
(assert
 (>= l_0_6_3 0.0))
(assert
 (>= l_0_6_4 0.0))
(assert
 (>= l_0_6_5 0.0))
(assert
 (>= l_0_6_6 0.0))
(assert
 (let ((?x379 (- (- (+ (* (- _a_0_) _a_2_) (* 200.0 l_0_7_3)) l_0_7_4) l_0_7_5)))
 (= (+ (- (- ?x379 l_0_7_6) l_0_7_7) 1.0) 0.0)))
(assert
 (= (- (- (* (- _a_1_) _a_2_) l_0_7_2) l_0_7_3) 0.0))
(assert
 (= (- l_0_7_1) 0.0))
(assert
 (>= l_0_7_1 0.0))
(assert
 (>= l_0_7_2 0.0))
(assert
 (>= l_0_7_3 0.0))
(assert
 (>= l_0_7_4 0.0))
(assert
 (>= l_0_7_5 0.0))
(assert
 (>= l_0_7_6 0.0))
(assert
 (>= l_0_7_7 0.0))
(check-sat)
(get-model)